; CALLVALUE SWAP1 DUP2 ADD SWAP1 => CALLVALUE ADD CALLVALUE
(set-option :produce-proofs true)
; 
(set-info :status unknown)
(declare-fun storage_t ((_ BitVec 256) (_ BitVec 256) Int (_ BitVec 256)) (_ BitVec 256))
(declare-fun storage_s ((_ BitVec 256) (_ BitVec 256) Int (_ BitVec 256)) (_ BitVec 256))
(declare-fun exc_halt_t (Int) Bool)
(declare-fun exc_halt_s (Int) Bool)
(declare-fun stack_t ((_ BitVec 256) (_ BitVec 256) Int (_ BitVec 6)) (_ BitVec 256))
(declare-fun stack_s ((_ BitVec 256) (_ BitVec 256) Int (_ BitVec 6)) (_ BitVec 256))
(declare-fun sc_t (Int) (_ BitVec 6))
(declare-fun sc_s (Int) (_ BitVec 6))
(declare-fun used_gas_t ((_ BitVec 256) (_ BitVec 256) Int) Int)
(declare-fun used_gas_s ((_ BitVec 256) (_ BitVec 256) Int) Int)
(assert
 (exists ((x_0 (_ BitVec 256)) (x_CALLVALUE (_ BitVec 256)) )(let (($x2710 (forall ((w (_ BitVec 256)) )(let ((?x4018 (storage_t x_0 x_CALLVALUE 3 w)))
 (let ((?x4041 (storage_s x_0 x_CALLVALUE 5 w)))
 (= ?x4041 ?x4018))))
 ))
 (let (($x2075 (exc_halt_t 3)))
 (let (($x3979 (exc_halt_s 5)))
 (let (($x9936 (= $x3979 $x2075)))
 (let (($x678 (forall ((n (_ BitVec 6)) )(let ((?x6259 (stack_t x_0 x_CALLVALUE 3 n)))
 (let ((?x7166 (stack_s x_0 x_CALLVALUE 5 n)))
 (let (($x10203 (= ?x7166 ?x6259)))
 (let ((?x2725 (sc_t 3)))
 (let (($x4906 (bvsle ?x2725 n)))
 (or $x4906 $x10203)))))))
 ))
 (let ((?x2725 (sc_t 3)))
 (let ((?x805 (sc_s 5)))
 (let (($x10361 (= ?x805 ?x2725)))
 (let ((?x11347 (used_gas_t x_0 x_CALLVALUE 0)))
 (let ((?x11289 (used_gas_s x_0 x_CALLVALUE 0)))
 (let (($x6430 (= ?x11289 ?x11347)))
 (let (($x1319 (forall ((w (_ BitVec 256)) )(let ((?x4458 (storage_t x_0 x_CALLVALUE 0 w)))
 (let ((?x11583 (storage_s x_0 x_CALLVALUE 0 w)))
 (= ?x11583 ?x4458))))
 ))
 (let (($x56 (exc_halt_t 0)))
 (let (($x57 (exc_halt_s 0)))
 (let (($x58 (= $x57 $x56)))
 (let (($x2476 (forall ((n (_ BitVec 6)) )(let ((?x63 (sc_t 0)))
 (let (($x6321 (bvsle ?x63 n)))
 (let ((?x5077 (stack_t x_0 x_CALLVALUE 0 n)))
 (let ((?x5117 (stack_s x_0 x_CALLVALUE 0 n)))
 (let (($x3304 (= ?x5117 ?x5077)))
 (or $x3304 $x6321)))))))
 ))
 (let ((?x63 (sc_t 0)))
 (let ((?x72 (sc_s 0)))
 (let (($x73 (= ?x72 ?x63)))
 (let (($x751 (not (= ((_ extract 6 6) (bvadd (_ bv1 7) (concat (_ bv0 1) (sc_t 2)))) (_ bv0 1)))))
 (let (($x5252 (exc_halt_t 2)))
 (let (($x10061 (= $x2075 (or $x5252 $x751))))
 (let (($x9407 (forall ((w (_ BitVec 256)) )(let ((?x6745 (storage_t x_0 x_CALLVALUE 2 w)))
 (let ((?x4018 (storage_t x_0 x_CALLVALUE 3 w)))
 (= ?x4018 ?x6745))))
 ))
 (let (($x110 (forall ((n (_ BitVec 6)) )(let ((?x2714 (sc_t 2)))
 (let (($x1161 (bvsle ?x2714 n)))
 (or $x1161 (= (stack_t x_0 x_CALLVALUE 3 n) (stack_t x_0 x_CALLVALUE 2 n))))))
 ))
 (let (($x3846 (= ?x2725 (bvadd (_ bv1 6) (sc_t 2)))))
 (let (($x5395 (= (used_gas_t x_0 x_CALLVALUE 3) (+ 2 (used_gas_t x_0 x_CALLVALUE 2)))))
 (let (($x11385 (= $x5252 (or (exc_halt_t 1) (not (bvsle (_ bv0 6) (bvadd (_ bv62 6) (sc_t 1))))))))
 (let (($x3544 (forall ((w (_ BitVec 256)) )(let ((?x6793 (storage_t x_0 x_CALLVALUE 1 w)))
 (let ((?x6745 (storage_t x_0 x_CALLVALUE 2 w)))
 (= ?x6745 ?x6793))))
 ))
 (let (($x1512 (forall ((n (_ BitVec 6)) )(let ((?x9884 (stack_t x_0 x_CALLVALUE 1 n)))
 (let ((?x7468 (stack_t x_0 x_CALLVALUE 2 n)))
 (let (($x11846 (= ?x7468 ?x9884)))
 (let ((?x10950 (sc_t 1)))
 (let ((?x7982 (bvadd (_ bv62 6) ?x10950)))
 (let (($x5974 (bvsle ?x7982 n)))
 (or $x5974 $x11846))))))))
 ))
 (let ((?x11198 (used_gas_t x_0 x_CALLVALUE 2)))
 (let (($x7829 (= ?x11198 (+ 3 (used_gas_t x_0 x_CALLVALUE 1)))))
 (let ((?x10950 (sc_t 1)))
 (let ((?x2841 (bvadd (_ bv63 6) ?x10950)))
 (let ((?x10311 (stack_t x_0 x_CALLVALUE 1 ?x2841)))
 (let ((?x2714 (sc_t 2)))
 (let ((?x11371 (bvadd (_ bv63 6) ?x2714)))
 (let ((?x4202 (stack_t x_0 x_CALLVALUE 2 ?x11371)))
 (let (($x8096 (exc_halt_t 1)))
 (let (($x7342 (= $x8096 (or $x56 (not (= ((_ extract 6 6) (bvadd (_ bv1 7) (concat (_ bv0 1) ?x63))) (_ bv0 1)))))))
 (let (($x5743 (forall ((w (_ BitVec 256)) )(let ((?x4458 (storage_t x_0 x_CALLVALUE 0 w)))
 (let ((?x6793 (storage_t x_0 x_CALLVALUE 1 w)))
 (= ?x6793 ?x4458))))
 ))
 (let (($x7505 (forall ((n (_ BitVec 6)) )(let ((?x5077 (stack_t x_0 x_CALLVALUE 0 n)))
 (let ((?x9884 (stack_t x_0 x_CALLVALUE 1 n)))
 (let (($x11287 (= ?x9884 ?x5077)))
 (let ((?x63 (sc_t 0)))
 (let (($x6321 (bvsle ?x63 n)))
 (or $x6321 $x11287)))))))
 ))
 (let (($x6864 (= ?x10950 (bvadd (_ bv1 6) ?x63))))
 (let (($x136 (= $x3979 (or (exc_halt_s 4) (not (bvsle (_ bv0 6) (bvadd (_ bv62 6) (sc_s 4))))))))
 (let (($x11626 (forall ((w (_ BitVec 256)) )(let ((?x4203 (storage_s x_0 x_CALLVALUE 4 w)))
 (let ((?x4041 (storage_s x_0 x_CALLVALUE 5 w)))
 (= ?x4041 ?x4203))))
 ))
 (let (($x1820 (forall ((n (_ BitVec 6)) )(let ((?x4305 (sc_s 4)))
 (let ((?x3279 (bvadd (_ bv62 6) ?x4305)))
 (let (($x3606 (bvsle ?x3279 n)))
 (let ((?x5468 (stack_s x_0 x_CALLVALUE 4 n)))
 (let ((?x7166 (stack_s x_0 x_CALLVALUE 5 n)))
 (let (($x2853 (= ?x7166 ?x5468)))
 (or $x2853 $x3606))))))))
 ))
 (let ((?x4305 (sc_s 4)))
 (let (($x7896 (= ?x805 ?x4305)))
 (let (($x11684 (= (used_gas_s x_0 x_CALLVALUE 5) (+ 3 (used_gas_s x_0 x_CALLVALUE 4)))))
 (let ((?x7007 (bvadd (_ bv63 6) ?x4305)))
 (let ((?x3302 (stack_s x_0 x_CALLVALUE 4 ?x7007)))
 (let ((?x5665 (bvadd (_ bv63 6) ?x805)))
 (let ((?x1745 (stack_s x_0 x_CALLVALUE 5 ?x5665)))
 (let (($x7172 (exc_halt_s 4)))
 (let (($x6252 (= $x7172 (or (exc_halt_s 3) (not (bvsle (_ bv0 6) (bvadd (_ bv62 6) (sc_s 3))))))))
 (let (($x10020 (forall ((w (_ BitVec 256)) )(let ((?x4318 (storage_s x_0 x_CALLVALUE 3 w)))
 (let ((?x4203 (storage_s x_0 x_CALLVALUE 4 w)))
 (= ?x4203 ?x4318))))
 ))
 (let (($x500 (forall ((n (_ BitVec 6)) )(let ((?x275 (sc_s 3)))
 (let ((?x9431 (bvadd (_ bv62 6) ?x275)))
 (let (($x11113 (bvsle ?x9431 n)))
 (let ((?x7361 (stack_s x_0 x_CALLVALUE 3 n)))
 (let ((?x5468 (stack_s x_0 x_CALLVALUE 4 n)))
 (let (($x556 (= ?x5468 ?x7361)))
 (or $x556 $x11113))))))))
 ))
 (let ((?x275 (sc_s 3)))
 (let ((?x10342 (bvadd (_ bv63 6) ?x275)))
 (let (($x5912 (= ?x4305 ?x10342)))
 (let ((?x4045 (used_gas_s x_0 x_CALLVALUE 4)))
 (let (($x11417 (= ?x4045 (+ 3 (used_gas_s x_0 x_CALLVALUE 3)))))
 (let ((?x11202 (stack_s x_0 x_CALLVALUE 3 ?x10342)))
 (let (($x11403 (not (bvsle (_ bv0 6) (bvadd (_ bv62 6) (sc_s 2))))))
 (let (($x247 (exc_halt_s 2)))
 (let (($x6901 (or $x247 (not (= ((_ extract 6 6) (bvadd (_ bv1 7) (concat (_ bv0 1) (sc_s 2)))) (_ bv0 1))) $x11403)))
 (let (($x292 (exc_halt_s 3)))
 (let (($x9843 (forall ((w (_ BitVec 256)) )(let ((?x11554 (storage_s x_0 x_CALLVALUE 2 w)))
 (let ((?x4318 (storage_s x_0 x_CALLVALUE 3 w)))
 (= ?x4318 ?x11554))))
 ))
 (let (($x9047 (forall ((n (_ BitVec 6)) )(let ((?x218 (sc_s 2)))
 (let ((?x8765 (bvadd (_ bv62 6) ?x218)))
 (let (($x1654 (bvsle ?x8765 n)))
 (or $x1654 (= (stack_s x_0 x_CALLVALUE 3 n) (stack_s x_0 x_CALLVALUE 2 n)))))))
 ))
 (let ((?x11794 (used_gas_s x_0 x_CALLVALUE 3)))
 (let (($x2344 (= ?x11794 (+ 3 (used_gas_s x_0 x_CALLVALUE 2)))))
 (let ((?x218 (sc_s 2)))
 (let ((?x8251 (bvadd (_ bv63 6) ?x218)))
 (let ((?x11346 (stack_s x_0 x_CALLVALUE 2 ?x8251)))
 (let ((?x8765 (bvadd (_ bv62 6) ?x218)))
 (let ((?x6226 (stack_s x_0 x_CALLVALUE 2 ?x8765)))
 (let (($x1793 (= $x247 (or (exc_halt_s 1) (not (bvsle (_ bv0 6) (bvadd (_ bv62 6) (sc_s 1))))))))
 (let (($x8146 (forall ((w (_ BitVec 256)) )(let ((?x5853 (storage_s x_0 x_CALLVALUE 1 w)))
 (let ((?x11554 (storage_s x_0 x_CALLVALUE 2 w)))
 (= ?x11554 ?x5853))))
 ))
 (let (($x4281 (forall ((n (_ BitVec 6)) )(let ((?x2241 (stack_s x_0 x_CALLVALUE 1 n)))
 (let ((?x2945 (stack_s x_0 x_CALLVALUE 2 n)))
 (let (($x11404 (= ?x2945 ?x2241)))
 (let ((?x154 (sc_s 1)))
 (let ((?x1874 (bvadd (_ bv62 6) ?x154)))
 (let (($x10991 (bvsle ?x1874 n)))
 (or $x10991 $x11404))))))))
 ))
 (let ((?x154 (sc_s 1)))
 (let (($x11037 (= ?x218 ?x154)))
 (let ((?x11172 (used_gas_s x_0 x_CALLVALUE 2)))
 (let (($x11451 (= ?x11172 (+ 3 (used_gas_s x_0 x_CALLVALUE 1)))))
 (let (($x189 (exc_halt_s 1)))
 (let (($x788 (= $x189 (or $x57 (not (= ((_ extract 6 6) (bvadd (_ bv1 7) (concat (_ bv0 1) ?x72))) (_ bv0 1)))))))
 (let (($x5508 (forall ((w (_ BitVec 256)) )(let ((?x11583 (storage_s x_0 x_CALLVALUE 0 w)))
 (let ((?x5853 (storage_s x_0 x_CALLVALUE 1 w)))
 (= ?x5853 ?x11583))))
 ))
 (let (($x10205 (forall ((n (_ BitVec 6)) )(let ((?x72 (sc_s 0)))
 (let (($x720 (bvsle ?x72 n)))
 (or $x720 (= (stack_s x_0 x_CALLVALUE 1 n) (stack_s x_0 x_CALLVALUE 0 n))))))
 ))
 (let (($x481 (= ?x154 (bvadd (_ bv1 6) ?x72))))
 (let (($x11539 (forall ((w (_ BitVec 256)) )(let ((?x11583 (storage_s x_0 x_CALLVALUE 0 w)))
 (= ?x11583 (_ bv0 256))))
 ))
 (let (($x11455 (= ?x11289 0)))
 (let (($x1438 (not $x57)))
 (let (($x1806 (= (stack_s x_0 x_CALLVALUE 0 (_ bv0 6)) x_0)))
 (let (($x8685 (= ?x72 (_ bv1 6))))
 (and $x8685 $x1806 $x1438 $x11455 $x11539 (= (stack_s x_0 x_CALLVALUE 1 ?x72) x_CALLVALUE) (= (used_gas_s x_0 x_CALLVALUE 1) (+ 2 ?x11289)) $x481 $x10205 $x5508 $x788 (= ?x11346 (stack_s x_0 x_CALLVALUE 1 (bvadd (_ bv62 6) ?x154))) (= ?x6226 (stack_s x_0 x_CALLVALUE 1 (bvadd (_ bv63 6) ?x154))) $x11451 $x11037 $x4281 $x8146 $x1793 (= ?x11202 ?x6226) (= (stack_s x_0 x_CALLVALUE 3 ?x8765) ?x6226) (= (stack_s x_0 x_CALLVALUE 3 ?x8251) ?x11346) $x2344 (= ?x275 (bvadd (_ bv1 6) ?x218)) $x9047 $x9843 (= $x292 $x6901) (= ?x3302 (bvadd ?x11202 (stack_s x_0 x_CALLVALUE 3 (bvadd (_ bv62 6) ?x275)))) $x11417 $x5912 $x500 $x10020 $x6252 (= ?x1745 (stack_s x_0 x_CALLVALUE 4 (bvadd (_ bv62 6) ?x4305))) (= (stack_s x_0 x_CALLVALUE 5 (bvadd (_ bv62 6) ?x805)) ?x3302) $x11684 $x7896 $x1820 $x11626 $x136 (= (stack_t x_0 x_CALLVALUE 1 ?x63) x_CALLVALUE) (= (used_gas_t x_0 x_CALLVALUE 1) (+ 2 ?x11347)) $x6864 $x7505 $x5743 $x7342 (= ?x4202 (bvadd ?x10311 (stack_t x_0 x_CALLVALUE 1 (bvadd (_ bv62 6) ?x10950)))) $x7829 (= ?x2714 ?x2841) $x1512 $x3544 $x11385 (= (stack_t x_0 x_CALLVALUE 3 ?x2714) x_CALLVALUE) $x5395 $x3846 $x110 $x9407 $x10061 $x73 $x2476 $x58 $x1319 $x6430 (not (and $x10361 $x678 $x9936 $x2710))))))))))))))))))))))))))))))))))))))))))))))))))))))))))))))))))))))))))))))))))))))))))))))))
 )
(check-sat)
(get-proof)
